c   #vars: 125   #clauses: 566   #literals: 1526
c 
p cnf 125 566
-1 -2 0
-3 -4 0
8 43 44 -112 0
-6 -7 0
13 23 24 -97 0
-9 -10 0
-11 -12 0
18 64 65 -91 0
-14 -15 0
-16 -17 0
-17 49 54 55 0
-19 -20 0
-21 -22 0
-23 -24 0
29 30 110 111 0
-25 -26 0
-27 -28 0
-29 -30 0
-31 -32 0
-33 -34 0
-35 -36 0
-37 -38 0
-39 -40 0
-41 -42 0
-43 -44 0
-45 -46 0
-47 -48 0
3 4 76 -114 0
-50 -51 0
-52 -53 0
-54 -55 0
-56 -57 0
-58 -59 0
-60 -61 0
-62 -63 0
-64 -65 0
-66 -67 0
-68 -69 0
-70 -71 0
-72 -73 0
-74 -75 0
-47 58 59 79 0
-77 -78 0
82 83 84 -112 0
-80 -81 0
-82 -83 0
45 46 107 -122 0
-85 -86 0
14 15 91 92 0
35 36 41 42 0
-87 -88 0
-89 -90 0
-91 -92 0
-93 -94 0
-95 -96 0
-97 -98 0
-99 -100 0
-101 -102 0
-103 -104 0
-105 -106 0
-108 -109 0
-110 -111 0
-112 -113 0
-114 -115 0
14 15 89 90 0
-116 -117 0
77 78 91 92 0
-118 -119 0
-120 -121 0
16 17 120 121 0
-122 -123 0
3 4 95 96 0
-124 -125 0
5 49 -55 -95 0
-1 -58 0
-2 -59 0
-23 84 112 113 0
-1 -60 0
-2 -61 0
25 26 116 117 0
-1 -110 0
-2 -111 0
47 48 93 94 0
-1 -124 0
-2 -125 0
-3 -9 0
-4 -10 0
21 22 60 61 0
-3 -14 0
-4 -15 0
19 20 105 106 0
-3 -52 0
-4 -53 0
21 22 45 46 0
-33 58 59 79 0
-4 -76 0
-3 -95 0
-4 -96 0
-3 -105 0
-4 -106 0
50 51 77 78 0
-33 47 48 79 0
47 48 116 117 0
8 -33 43 44 0
3 4 76 -89 0
97 98 103 104 0
8 33 34 -112 0
-5 -57 0
50 51 116 117 0
8 33 34 -43 0
-5 -96 0
6 7 11 12 0
-6 -11 0
-7 -12 0
93 94 116 117 0
-6 -31 0
-7 -32 0
11 12 112 113 0
-6 -41 0
-7 -42 0
45 46 97 98 0
-6 -47 0
-7 -48 0
64 65 101 102 0
-6 -97 0
-7 -98 0
11 12 41 42 0
-9 13 23 24 0
-8 -34 0
54 55 107 -122 0
9 10 13 -97 0
-8 -44 0
60 61 89 90 0
9 10 13 -23 0
-8 -113 0
89 90 103 104 0
18 -29 64 65 0
-10 -13 0
82 83 112 113 0
-9 -43 0
-10 -44 0
74 75 110 111 0
-9 -114 0
-10 -115 0
-11 -14 0
-12 -15 0
18 -64 91 92 0
-11 -41 0
-12 -42 0
-11 -108 0
-12 -109 0
72 73 87 88 0
-11 -112 0
-12 -113 0
54 55 91 92 0
18 29 30 -91 0
-13 -24 0
58 59 99 100 0
18 29 30 -64 0
-13 -98 0
54 55 56 57 0
-14 -54 0
-15 -55 0
11 12 14 15 0
-14 -60 0
-15 -61 0
74 75 95 96 0
-14 -85 0
-15 -86 0
54 55 108 109 0
-14 -89 0
-15 -90 0
64 65 116 117 0
-14 -91 0
-15 -92 0
-9 13 97 98 0
-14 -118 0
-15 -119 0
27 28 85 86 0
-16 -23 0
-17 -24 0
1 2 124 125 0
-16 -49 0
76 -89 114 115 0
41 42 87 88 0
-3 76 89 90 0
-16 -103 0
-17 -104 0
27 28 120 121 0
-16 -110 0
-17 -111 0
45 46 110 111 0
-16 -118 0
-17 -119 0
101 102 122 123 0
-16 -120 0
-17 -121 0
-5 49 54 55 0
-18 -30 0
56 57 74 75 0
16 17 49 -55 0
-18 -65 0
41 42 50 51 0
-5 16 17 49 0
-18 -92 0
-19 -70 0
-20 -71 0
-19 -105 0
-20 -106 0
16 17 118 119 0
-19 -108 0
-20 -109 0
14 15 60 61 0
-19 -120 0
-20 -121 0
21 22 35 36 0
-21 -35 0
-22 -36 0
35 36 66 67 0
-21 -45 0
-22 -46 0
35 36 39 40 0
-21 -47 0
-22 -48 0
25 26 35 36 0
-21 -56 0
-22 -57 0
29 30 114 115 0
-21 -60 0
-22 -61 0
5 -49 95 96 0
-21 -101 0
-22 -102 0
27 28 68 69 0
-23 -31 0
-24 -32 0
16 17 23 24 0
45 46 -54 107 0
-24 -84 0
5 49 -55 -56 0
-23 -103 0
-24 -104 0
39 40 91 92 0
62 63 70 71 0
3 4 14 15 0
-25 -35 0
-26 -36 0
-25 -43 0
-26 -44 0
39 40 64 65 0
-25 -116 0
-26 -117 0
58 59 112 113 0
-25 -120 0
-26 -121 0
29 30 33 34 0
-27 -66 0
-28 -67 0
19 20 70 71 0
-27 -68 0
-28 -69 0
5 -17 49 -95 0
-27 -80 0
-28 -81 0
8 -43 112 113 0
-27 -85 0
-28 -86 0
23 24 103 104 0
-27 -120 0
-28 -121 0
1 2 58 59 0
-29 -33 0
-30 -34 0
23 24 31 32 0
-29 -99 0
-30 -100 0
6 7 31 32 0
-29 -110 0
-30 -111 0
-29 -114 0
-30 -115 0
37 38 85 86 0
-31 -77 0
-32 -78 0
37 38 72 73 0
-31 -93 0
-32 -94 0
68 69 116 117 0
-31 -103 0
-32 -104 0
116 117 120 121 0
-23 82 83 84 0
-34 -79 0
-82 84 112 113 0
-33 -124 0
-34 -125 0
25 26 43 44 0
-35 -39 0
-36 -40 0
50 51 124 125 0
-35 -41 0
-36 -42 0
50 51 93 94 0
-35 -47 0
-36 -48 0
66 67 77 78 0
-35 -66 0
-36 -67 0
16 17 103 104 0
-37 -52 0
-38 -53 0
62 63 91 92 0
-37 -72 0
-38 -73 0
-37 -80 0
-38 -81 0
72 73 91 92 0
-37 -85 0
-38 -86 0
87 88 91 92 0
-37 -112 0
-38 -113 0
9 10 43 44 0
-39 -56 0
-40 -57 0
13 -23 97 98 0
-39 -64 0
-40 -65 0
5 56 57 -95 0
-39 -82 0
-40 -83 0
6 7 47 48 0
-39 -91 0
-40 -92 0
3 4 52 53 0
-41 -50 0
-42 -51 0
62 63 97 98 0
-41 -87 0
-42 -88 0
66 67 99 100 0
-41 -93 0
-42 -94 0
50 51 101 102 0
-41 -97 0
-42 -98 0
-43 -114 0
-44 -115 0
-45 -52 0
-46 -53 0
66 67 82 83 0
-45 -80 0
-46 -81 0
21 22 101 102 0
-45 -97 0
-46 -98 0
19 20 120 121 0
-46 -107 0
25 26 120 121 0
-45 -110 0
-46 -111 0
47 48 122 123 0
-45 -112 0
-46 -113 0
5 -17 49 -56 0
23 24 84 -112 0
-48 -79 0
29 30 99 100 0
-47 -93 0
-48 -94 0
-47 -116 0
-48 -117 0
16 17 110 111 0
-47 -122 0
-48 -123 0
70 71 108 109 0
-49 -54 0
-3 76 114 115 0
62 63 80 81 0
-50 -77 0
-51 -78 0
74 75 99 100 0
-50 -93 0
-51 -94 0
52 53 124 125 0
-50 -101 0
-51 -102 0
37 38 52 53 0
-50 -116 0
-51 -117 0
3 4 9 10 0
-50 -124 0
-51 -125 0
9 10 114 115 0
-52 -72 0
-53 -73 0
52 53 87 88 0
-52 -87 0
-53 -88 0
47 48 -58 79 0
-52 -124 0
-53 -125 0
56 57 101 102 0
-54 -56 0
-55 -57 0
21 22 56 57 0
-54 -91 0
-55 -92 0
56 57 62 63 0
-54 -103 0
-55 -104 0
6 7 41 42 0
-55 -107 0
39 40 56 57 0
-54 -108 0
-55 -109 0
27 28 66 67 0
-56 -62 0
-57 -63 0
68 69 85 86 0
-56 -74 0
-57 -75 0
101 102 105 106 0
-56 -101 0
-57 -102 0
52 53 72 73 0
23 24 -82 84 0
-59 -79 0
1 2 60 61 0
-58 -99 0
-59 -100 0
19 20 108 109 0
-58 -112 0
-59 -113 0
45 46 80 81 0
-60 -89 0
-61 -90 0
54 55 103 104 0
-62 -70 0
-63 -71 0
-45 54 55 107 0
-62 -80 0
-63 -81 0
45 46 52 53 0
-62 -91 0
-63 -92 0
21 22 47 48 0
-62 -97 0
-63 -98 0
41 42 97 98 0
70 71 103 104 0
76 89 90 -114 0
108 109 114 115 0
-64 -89 0
-65 -90 0
3 4 105 106 0
-64 -101 0
-65 -102 0
45 46 112 113 0
-64 -108 0
-65 -109 0
14 15 54 55 0
-64 -116 0
-65 -117 0
82 83 122 123 0
-64 -120 0
-65 -121 0
31 32 77 78 0
-66 -77 0
-67 -78 0
1 2 110 111 0
-66 -82 0
-67 -83 0
31 32 103 104 0
-66 -99 0
-67 -100 0
11 12 108 109 0
37 38 112 113 0
-68 -85 0
-69 -86 0
-68 -99 0
-69 -100 0
5 -49 56 57 0
-68 -116 0
-69 -117 0
-70 -103 0
-71 -104 0
87 88 124 125 0
-70 -108 0
-71 -109 0
64 65 120 121 0
-72 -87 0
-73 -88 0
89 90 95 96 0
-72 -91 0
-73 -92 0
14 15 85 86 0
-74 -95 0
-75 -96 0
-74 -99 0
-75 -100 0
64 65 89 90 0
-74 -110 0
-75 -111 0
33 34 -58 79 0
-76 -90 0
43 44 114 115 0
33 34 -47 79 0
-76 -115 0
37 38 80 81 0
-77 -91 0
-78 -92 0
27 28 80 81 0
-77 -105 0
-78 -106 0
39 40 82 83 0
-80 -108 0
-81 -109 0
8 -33 112 113 0
-54 107 122 123 0
-83 -84 0
31 32 93 94 0
-82 -112 0
-83 -113 0
14 15 118 119 0
-82 -122 0
-83 -123 0
35 36 47 48 0
-45 107 122 123 0
-84 -113 0
6 7 97 98 0
-87 -91 0
-88 -92 0
18 -29 91 92 0
-87 -124 0
-88 -125 0
-89 -95 0
-90 -96 0
80 81 108 109 0
-89 -103 0
-90 -104 0
68 69 99 100 0
-93 -116 0
-94 -117 0
-97 -103 0
-98 -104 0
77 78 105 106 0
-101 -105 0
-102 -106 0
105 106 118 119 0
-101 -122 0
-102 -123 0
5 -56 95 96 0
-105 -118 0
-106 -119 0
64 65 108 109 0
-107 -123 0
33 34 124 125 0
-108 -114 0
-109 -115 0
118 119 122 123 0
-116 -120 0
-117 -121 0
41 42 93 94 0
-118 -122 0
-119 -123 0
